RAW/XT/fspd/X-n167-k10.vrp_seed-2.out
19370	10.608	30.049
