RAW/XT/fspd/X-n167-k10.vrp_seed-2.sol
Route #1: 99 63 124 152 103 86 67 5
Route #2: 157 9 48 68 162 62 123 128 85 156 14 96 17 159 15 140 119 134
Route #3: 35 26 165 78 41 74 33 106 166 94 90 161 91 147 117 43 66 125 52 46
Route #4: 87 144 80 105 36 110 65 34 164 81 45 98 150 135 100 102 108 27 101 18 54 42
Route #5: 143 71 60 158 95 82 120 39 11 141 70 133 24 31 40 50 19 142 132 154 139 23 76
Route #6: 121 79 3 130 113 21 149 131 151 153 116 148 97 115 38 55 92 30 44
Route #7: 4 109 16 28 29 2 136 37 84 146 51 10 72 32 53 112 59 75 160
Route #8: 138 20 49 64 107 104 12 57 77 13 1 122 111 88 114 163 145 129 8
Route #9: 89 6 7 25 93 118 47 126 127 61 58 56 155 69 83 22 73 137
Cost 19370.000000